138688
22,11,56,2,1,78,27,81,74,15,32,26,50,6,31,73,57,16,55,76,8,39,10,37,34,29,5,60,82,7,58,67,43,30,47,18,21,4,36,17,12,53,79,13,69,25,35,19,66,75,61,65,70,45,44,0,9,63,28,72,20,23,52,64,49,3,38,51,40,62,77,68,14,24,41,59,33,48,46,80,71,42,54